nK = 1320;
nT = 8;
nI = 21;
L = 29;
TT = 301;
np = 1;
nc = 3;
b = [51, 65, 66, 29, 47, 39, 21, 31, 44, 48, 58, 42, 31, 55, 20, 23, 31, 35, 28, 50, 50];
d = [83, 99, 114, 121, 89, 119, 129, 104, 113, 78, 131, 100, 96, 87, 66, 35, 75, 89, 49, 112, 98];
m = [1.3, 1.9, 1.5, 2.2, 1.1, 2.5, 1.7, 2.5, 2.4, 2.4, 1.6, 1, 2.4, 1.1, 1.2, 1.6, 1.6, 1.9, 1.1, 1.8, 2.3];
pt = [0.31, 0.22, 0.32, 0.34, 0.28, 0.28, 0.32, 0.22];
st = [15.5, 10.56, 13.12, 16.66, 16.52, 15.4, 16.96, 12.1];
arc = {<1, 0, 1, 1, 0, 0, 0, [1, 1, 1, 1, 1, 1, 1, 1]>, <2, 1, 2, 1, 0, 0, 0, [1, 1, 1, 1, 1, 1, 1, 1]>, <3, 2, 3, 1, 0, 0, 0, [1, 1, 1, 1, 1, 1, 1, 1]>, <4, 3, 4, 1, 0, 0, 0, [1, 1, 1, 1, 1, 1, 1, 1]>, <5, 4, 5, 1, 0, 0, 0, [1, 1, 1, 1, 1, 1, 1, 1]>, <6, 5, 6, 1, 0, 0, 0, [1, 1, 1, 1, 1, 1, 1, 1]>, <7, 6, 7, 1, 0, 0, 0, [1, 1, 1, 1, 1, 1, 1, 1]>, <8, 7, 8, 1, 0, 0, 0, [1, 1, 1, 1, 1, 1, 1, 1]>, <9, 8, 9, 1, 0, 0, 0, [1, 1, 1, 1, 1, 1, 1, 1]>, <10, 9, 10, 1, 0, 0, 0, [1, 1, 1, 1, 1, 1, 1, 1]>, <11, 10, 11, 1, 0, 0, 0, [1, 1, 1, 1, 1, 1, 1, 1]>, <12, 11, 12, 1, 0, 0, 0, [1, 1, 1, 1, 1, 1, 1, 1]>, <13, 12, 13, 1, 0, 0, 0, [1, 1, 1, 1, 1, 1, 1, 1]>, <14, 13, 14, 1, 0, 0, 0, [1, 1, 1, 1, 1, 1, 1, 1]>, <15, 14, 15, 1, 0, 0, 0, [1, 1, 1, 1, 1, 1, 1, 1]>, <16, 15, 16, 1, 0, 0, 0, [1, 1, 1, 1, 1, 1, 1, 1]>, <17, 16, 17, 1, 0, 0, 0, [1, 1, 1, 1, 1, 1, 1, 1]>, <18, 17, 18, 1, 0, 0, 0, [1, 1, 1, 1, 1, 1, 1, 1]>, <19, 18, 19, 1, 0, 0, 0, [1, 1, 1, 1, 1, 1, 1, 1]>, <20, 19, 20, 1, 0, 0, 0, [1, 1, 1, 1, 1, 1, 1, 1]>, <21, 20, 21, 1, 0, 0, 0, [1, 1, 1, 1, 1, 1, 1, 1]>, <22, 21, 22, 1, 0, 0, 0, [1, 1, 1, 1, 1, 1, 1, 1]>, <23, 22, 23, 1, 0, 0, 0, [1, 1, 1, 1, 1, 1, 1, 1]>, <24, 23, 24, 1, 0, 0, 0, [1, 1, 1, 1, 1, 1, 1, 1]>, <25, 24, 25, 1, 0, 0, 0, [1, 1, 1, 1, 1, 1, 1, 1]>, <26, 25, 26, 1, 0, 0, 0, [1, 1, 1, 1, 1, 1, 1, 1]>, <27, 26, 27, 1, 0, 0, 0, [1, 1, 1, 1, 1, 1, 1, 1]>, <28, 27, 28, 1, 0, 0, 0, [1, 1, 1, 1, 1, 1, 1, 1]>, <29, 28, 29, 1, 0, 0, 0, [1, 1, 1, 1, 1, 1, 1, 1]>, <30, 2, 12, 10, 1, 0, 0, [1, 1, 1, 1, 0, 0, 0, 0]>, <31, 3, 13, 10, 1, 0, 0, [1, 1, 1, 1, 0, 0, 0, 0]>, <32, 4, 14, 10, 1, 0, 0, [1, 1, 1, 1, 0, 0, 0, 0]>, <33, 5, 15, 10, 1, 0, 0, [1, 1, 1, 1, 0, 0, 0, 0]>, <34, 10, 20, 10, 1, 0, 0, [1, 1, 1, 1, 0, 0, 0, 0]>, <35, 11, 21, 10, 1, 0, 0, [1, 1, 1, 1, 0, 0, 0, 0]>, <36, 12, 22, 10, 1, 0, 0, [1, 1, 1, 1, 0, 0, 0, 0]>, <37, 14, 24, 10, 1, 0, 0, [1, 1, 1, 1, 0, 0, 0, 0]>, <38, 15, 25, 10, 1, 0, 0, [1, 1, 1, 1, 0, 0, 0, 0]>, <39, 16, 26, 10, 1, 0, 0, [1, 1, 1, 1, 0, 0, 0, 0]>, <40, 17, 27, 10, 1, 0, 0, [1, 1, 1, 1, 0, 0, 0, 0]>, <41, 18, 28, 10, 1, 0, 0, [1, 1, 1, 1, 0, 0, 0, 0]>, <42, 19, 29, 10, 1, 0, 0, [1, 1, 1, 1, 0, 0, 0, 0]>, <43, 2, 12, 10, 2, 0, 0, [0, 0, 1, 1, 1, 1, 0, 0]>, <44, 3, 13, 10, 2, 0, 0, [0, 0, 1, 1, 1, 1, 0, 0]>, <45, 4, 14, 10, 2, 0, 0, [0, 0, 1, 1, 1, 1, 0, 0]>, <46, 5, 15, 10, 2, 0, 0, [0, 0, 1, 1, 1, 1, 0, 0]>, <47, 10, 20, 10, 2, 0, 0, [0, 0, 1, 1, 1, 1, 0, 0]>, <48, 11, 21, 10, 2, 0, 0, [0, 0, 1, 1, 1, 1, 0, 0]>, <49, 12, 22, 10, 2, 0, 0, [0, 0, 1, 1, 1, 1, 0, 0]>, <50, 14, 24, 10, 2, 0, 0, [0, 0, 1, 1, 1, 1, 0, 0]>, <51, 15, 25, 10, 2, 0, 0, [0, 0, 1, 1, 1, 1, 0, 0]>, <52, 16, 26, 10, 2, 0, 0, [0, 0, 1, 1, 1, 1, 0, 0]>, <53, 17, 27, 10, 2, 0, 0, [0, 0, 1, 1, 1, 1, 0, 0]>, <54, 18, 28, 10, 2, 0, 0, [0, 0, 1, 1, 1, 1, 0, 0]>, <55, 19, 29, 10, 2, 0, 0, [0, 0, 1, 1, 1, 1, 0, 0]>, <56, 4, 11, 7, 3, 0, 0, [1, 1, 1, 1, 0, 0, 0, 0]>, <57, 5, 12, 7, 3, 0, 0, [1, 1, 1, 1, 0, 0, 0, 0]>, <58, 11, 18, 7, 3, 0, 0, [1, 1, 1, 1, 0, 0, 0, 0]>, <59, 12, 19, 7, 3, 0, 0, [1, 1, 1, 1, 0, 0, 0, 0]>, <60, 17, 24, 7, 3, 0, 0, [1, 1, 1, 1, 0, 0, 0, 0]>, <61, 18, 25, 7, 3, 0, 0, [1, 1, 1, 1, 0, 0, 0, 0]>, <62, 19, 26, 7, 3, 0, 0, [1, 1, 1, 1, 0, 0, 0, 0]>, <63, 20, 27, 7, 3, 0, 0, [1, 1, 1, 1, 0, 0, 0, 0]>, <64, 4, 12, 8, 4, 0, 0, [0, 1, 1, 1, 1, 0, 0, 0]>, <65, 5, 13, 8, 4, 0, 0, [0, 1, 1, 1, 1, 0, 0, 0]>, <66, 11, 19, 8, 4, 0, 0, [0, 1, 1, 1, 1, 0, 0, 0]>, <67, 12, 20, 8, 4, 0, 0, [0, 1, 1, 1, 1, 0, 0, 0]>, <68, 16, 24, 8, 4, 0, 0, [0, 1, 1, 1, 1, 0, 0, 0]>, <69, 17, 25, 8, 4, 0, 0, [0, 1, 1, 1, 1, 0, 0, 0]>, <70, 18, 26, 8, 4, 0, 0, [0, 1, 1, 1, 1, 0, 0, 0]>, <71, 19, 27, 8, 4, 0, 0, [0, 1, 1, 1, 1, 0, 0, 0]>, <72, 20, 28, 8, 4, 0, 0, [0, 1, 1, 1, 1, 0, 0, 0]>, <73, 0, 12, 12, 5, 0, 1, [1, 1, 0, 0, 0, 0, 1, 1]>, <74, 1, 13, 12, 5, 0, 1, [1, 1, 0, 0, 0, 0, 1, 1]>, <75, 2, 14, 12, 5, 0, 1, [1, 1, 0, 0, 0, 0, 1, 1]>, <76, 3, 15, 12, 5, 0, 1, [1, 1, 0, 0, 0, 0, 1, 1]>, <77, 4, 16, 12, 5, 0, 1, [1, 1, 0, 0, 0, 0, 1, 1]>, <78, 5, 17, 12, 5, 0, 1, [1, 1, 0, 0, 0, 0, 1, 1]>, <79, 8, 20, 12, 5, 0, 1, [1, 1, 0, 0, 0, 0, 1, 1]>, <80, 9, 21, 12, 5, 0, 1, [1, 1, 0, 0, 0, 0, 1, 1]>, <81, 10, 22, 12, 5, 0, 1, [1, 1, 0, 0, 0, 0, 1, 1]>, <82, 11, 23, 12, 5, 0, 1, [1, 1, 0, 0, 0, 0, 1, 1]>, <83, 12, 24, 12, 5, 0, 1, [1, 1, 0, 0, 0, 0, 1, 1]>, <84, 13, 25, 12, 5, 0, 1, [1, 1, 0, 0, 0, 0, 1, 1]>, <85, 14, 26, 12, 5, 0, 1, [1, 1, 0, 0, 0, 0, 1, 1]>, <86, 15, 27, 12, 5, 0, 1, [1, 1, 0, 0, 0, 0, 1, 1]>, <87, 16, 28, 12, 5, 0, 1, [1, 1, 0, 0, 0, 0, 1, 1]>, <88, 17, 29, 12, 5, 0, 1, [1, 1, 0, 0, 0, 0, 1, 1]>, <89, 3, 12, 9, 6, 0, 1, [0, 0, 0, 0, 1, 1, 1, 1]>, <90, 4, 13, 9, 6, 0, 1, [0, 0, 0, 0, 1, 1, 1, 1]>, <91, 5, 14, 9, 6, 0, 1, [0, 0, 0, 0, 1, 1, 1, 1]>, <92, 11, 20, 9, 6, 0, 1, [0, 0, 0, 0, 1, 1, 1, 1]>, <93, 12, 21, 9, 6, 0, 1, [0, 0, 0, 0, 1, 1, 1, 1]>, <94, 15, 24, 9, 6, 0, 1, [0, 0, 0, 0, 1, 1, 1, 1]>, <95, 16, 25, 9, 6, 0, 1, [0, 0, 0, 0, 1, 1, 1, 1]>, <96, 17, 26, 9, 6, 0, 1, [0, 0, 0, 0, 1, 1, 1, 1]>, <97, 18, 27, 9, 6, 0, 1, [0, 0, 0, 0, 1, 1, 1, 1]>, <98, 19, 28, 9, 6, 0, 1, [0, 0, 0, 0, 1, 1, 1, 1]>, <99, 20, 29, 9, 6, 0, 1, [0, 0, 0, 0, 1, 1, 1, 1]>, <100, 2, 12, 10, 7, 0, 1, [1, 1, 0, 0, 0, 0, 1, 1]>, <101, 3, 13, 10, 7, 0, 1, [1, 1, 0, 0, 0, 0, 1, 1]>, <102, 4, 14, 10, 7, 0, 1, [1, 1, 0, 0, 0, 0, 1, 1]>, <103, 5, 15, 10, 7, 0, 1, [1, 1, 0, 0, 0, 0, 1, 1]>, <104, 10, 20, 10, 7, 0, 1, [1, 1, 0, 0, 0, 0, 1, 1]>, <105, 11, 21, 10, 7, 0, 1, [1, 1, 0, 0, 0, 0, 1, 1]>, <106, 12, 22, 10, 7, 0, 1, [1, 1, 0, 0, 0, 0, 1, 1]>, <107, 14, 24, 10, 7, 0, 1, [1, 1, 0, 0, 0, 0, 1, 1]>, <108, 15, 25, 10, 7, 0, 1, [1, 1, 0, 0, 0, 0, 1, 1]>, <109, 16, 26, 10, 7, 0, 1, [1, 1, 0, 0, 0, 0, 1, 1]>, <110, 17, 27, 10, 7, 0, 1, [1, 1, 0, 0, 0, 0, 1, 1]>, <111, 18, 28, 10, 7, 0, 1, [1, 1, 0, 0, 0, 0, 1, 1]>, <112, 19, 29, 10, 7, 0, 1, [1, 1, 0, 0, 0, 0, 1, 1]>, <113, 1, 12, 11, 8, 0, 1, [1, 1, 1, 0, 0, 0, 0, 1]>, <114, 2, 13, 11, 8, 0, 1, [1, 1, 1, 0, 0, 0, 0, 1]>, <115, 3, 14, 11, 8, 0, 1, [1, 1, 1, 0, 0, 0, 0, 1]>, <116, 4, 15, 11, 8, 0, 1, [1, 1, 1, 0, 0, 0, 0, 1]>, <117, 5, 16, 11, 8, 0, 1, [1, 1, 1, 0, 0, 0, 0, 1]>, <118, 9, 20, 11, 8, 0, 1, [1, 1, 1, 0, 0, 0, 0, 1]>, <119, 10, 21, 11, 8, 0, 1, [1, 1, 1, 0, 0, 0, 0, 1]>, <120, 11, 22, 11, 8, 0, 1, [1, 1, 1, 0, 0, 0, 0, 1]>, <121, 12, 23, 11, 8, 0, 1, [1, 1, 1, 0, 0, 0, 0, 1]>, <122, 13, 24, 11, 8, 0, 1, [1, 1, 1, 0, 0, 0, 0, 1]>, <123, 14, 25, 11, 8, 0, 1, [1, 1, 1, 0, 0, 0, 0, 1]>, <124, 15, 26, 11, 8, 0, 1, [1, 1, 1, 0, 0, 0, 0, 1]>, <125, 16, 27, 11, 8, 0, 1, [1, 1, 1, 0, 0, 0, 0, 1]>, <126, 17, 28, 11, 8, 0, 1, [1, 1, 1, 0, 0, 0, 0, 1]>, <127, 18, 29, 11, 8, 0, 1, [1, 1, 1, 0, 0, 0, 0, 1]>, <128, 1, 12, 11, 9, 0, 0, [0, 0, 0, 0, 1, 1, 1, 1]>, <129, 2, 13, 11, 9, 0, 0, [0, 0, 0, 0, 1, 1, 1, 1]>, <130, 3, 14, 11, 9, 0, 0, [0, 0, 0, 0, 1, 1, 1, 1]>, <131, 4, 15, 11, 9, 0, 0, [0, 0, 0, 0, 1, 1, 1, 1]>, <132, 5, 16, 11, 9, 0, 0, [0, 0, 0, 0, 1, 1, 1, 1]>, <133, 9, 20, 11, 9, 0, 0, [0, 0, 0, 0, 1, 1, 1, 1]>, <134, 10, 21, 11, 9, 0, 0, [0, 0, 0, 0, 1, 1, 1, 1]>, <135, 11, 22, 11, 9, 0, 0, [0, 0, 0, 0, 1, 1, 1, 1]>, <136, 12, 23, 11, 9, 0, 0, [0, 0, 0, 0, 1, 1, 1, 1]>, <137, 13, 24, 11, 9, 0, 0, [0, 0, 0, 0, 1, 1, 1, 1]>, <138, 14, 25, 11, 9, 0, 0, [0, 0, 0, 0, 1, 1, 1, 1]>, <139, 15, 26, 11, 9, 0, 0, [0, 0, 0, 0, 1, 1, 1, 1]>, <140, 16, 27, 11, 9, 0, 0, [0, 0, 0, 0, 1, 1, 1, 1]>, <141, 17, 28, 11, 9, 0, 0, [0, 0, 0, 0, 1, 1, 1, 1]>, <142, 18, 29, 11, 9, 0, 0, [0, 0, 0, 0, 1, 1, 1, 1]>, <143, 3, 12, 9, 10, 0, 0, [1, 0, 0, 0, 0, 1, 1, 1]>, <144, 4, 13, 9, 10, 0, 0, [1, 0, 0, 0, 0, 1, 1, 1]>, <145, 5, 14, 9, 10, 0, 0, [1, 0, 0, 0, 0, 1, 1, 1]>, <146, 11, 20, 9, 10, 0, 0, [1, 0, 0, 0, 0, 1, 1, 1]>, <147, 12, 21, 9, 10, 0, 0, [1, 0, 0, 0, 0, 1, 1, 1]>, <148, 15, 24, 9, 10, 0, 0, [1, 0, 0, 0, 0, 1, 1, 1]>, <149, 16, 25, 9, 10, 0, 0, [1, 0, 0, 0, 0, 1, 1, 1]>, <150, 17, 26, 9, 10, 0, 0, [1, 0, 0, 0, 0, 1, 1, 1]>, <151, 18, 27, 9, 10, 0, 0, [1, 0, 0, 0, 0, 1, 1, 1]>, <152, 19, 28, 9, 10, 0, 0, [1, 0, 0, 0, 0, 1, 1, 1]>, <153, 20, 29, 9, 10, 0, 0, [1, 0, 0, 0, 0, 1, 1, 1]>, <154, 3, 12, 9, 11, 0, 0, [1, 1, 0, 0, 0, 0, 1, 1]>, <155, 4, 13, 9, 11, 0, 0, [1, 1, 0, 0, 0, 0, 1, 1]>, <156, 5, 14, 9, 11, 0, 0, [1, 1, 0, 0, 0, 0, 1, 1]>, <157, 11, 20, 9, 11, 0, 0, [1, 1, 0, 0, 0, 0, 1, 1]>, <158, 12, 21, 9, 11, 0, 0, [1, 1, 0, 0, 0, 0, 1, 1]>, <159, 15, 24, 9, 11, 0, 0, [1, 1, 0, 0, 0, 0, 1, 1]>, <160, 16, 25, 9, 11, 0, 0, [1, 1, 0, 0, 0, 0, 1, 1]>, <161, 17, 26, 9, 11, 0, 0, [1, 1, 0, 0, 0, 0, 1, 1]>, <162, 18, 27, 9, 11, 0, 0, [1, 1, 0, 0, 0, 0, 1, 1]>, <163, 19, 28, 9, 11, 0, 0, [1, 1, 0, 0, 0, 0, 1, 1]>, <164, 20, 29, 9, 11, 0, 0, [1, 1, 0, 0, 0, 0, 1, 1]>, <165, 3, 12, 9, 12, 0, 0, [0, 0, 1, 1, 1, 1, 0, 0]>, <166, 4, 13, 9, 12, 0, 0, [0, 0, 1, 1, 1, 1, 0, 0]>, <167, 5, 14, 9, 12, 0, 0, [0, 0, 1, 1, 1, 1, 0, 0]>, <168, 11, 20, 9, 12, 0, 0, [0, 0, 1, 1, 1, 1, 0, 0]>, <169, 12, 21, 9, 12, 0, 0, [0, 0, 1, 1, 1, 1, 0, 0]>, <170, 15, 24, 9, 12, 0, 0, [0, 0, 1, 1, 1, 1, 0, 0]>, <171, 16, 25, 9, 12, 0, 0, [0, 0, 1, 1, 1, 1, 0, 0]>, <172, 17, 26, 9, 12, 0, 0, [0, 0, 1, 1, 1, 1, 0, 0]>, <173, 18, 27, 9, 12, 0, 0, [0, 0, 1, 1, 1, 1, 0, 0]>, <174, 19, 28, 9, 12, 0, 0, [0, 0, 1, 1, 1, 1, 0, 0]>, <175, 20, 29, 9, 12, 0, 0, [0, 0, 1, 1, 1, 1, 0, 0]>, <176, 2, 12, 10, 13, 0, 0, [0, 0, 1, 1, 1, 1, 0, 0]>, <177, 3, 13, 10, 13, 0, 0, [0, 0, 1, 1, 1, 1, 0, 0]>, <178, 4, 14, 10, 13, 0, 0, [0, 0, 1, 1, 1, 1, 0, 0]>, <179, 5, 15, 10, 13, 0, 0, [0, 0, 1, 1, 1, 1, 0, 0]>, <180, 10, 20, 10, 13, 0, 0, [0, 0, 1, 1, 1, 1, 0, 0]>, <181, 11, 21, 10, 13, 0, 0, [0, 0, 1, 1, 1, 1, 0, 0]>, <182, 12, 22, 10, 13, 0, 0, [0, 0, 1, 1, 1, 1, 0, 0]>, <183, 14, 24, 10, 13, 0, 0, [0, 0, 1, 1, 1, 1, 0, 0]>, <184, 15, 25, 10, 13, 0, 0, [0, 0, 1, 1, 1, 1, 0, 0]>, <185, 16, 26, 10, 13, 0, 0, [0, 0, 1, 1, 1, 1, 0, 0]>, <186, 17, 27, 10, 13, 0, 0, [0, 0, 1, 1, 1, 1, 0, 0]>, <187, 18, 28, 10, 13, 0, 0, [0, 0, 1, 1, 1, 1, 0, 0]>, <188, 19, 29, 10, 13, 0, 0, [0, 0, 1, 1, 1, 1, 0, 0]>, <189, 1, 12, 11, 14, 0, 0, [1, 1, 1, 1, 0, 0, 0, 0]>, <190, 2, 13, 11, 14, 0, 0, [1, 1, 1, 1, 0, 0, 0, 0]>, <191, 3, 14, 11, 14, 0, 0, [1, 1, 1, 1, 0, 0, 0, 0]>, <192, 4, 15, 11, 14, 0, 0, [1, 1, 1, 1, 0, 0, 0, 0]>, <193, 5, 16, 11, 14, 0, 0, [1, 1, 1, 1, 0, 0, 0, 0]>, <194, 9, 20, 11, 14, 0, 0, [1, 1, 1, 1, 0, 0, 0, 0]>, <195, 10, 21, 11, 14, 0, 0, [1, 1, 1, 1, 0, 0, 0, 0]>, <196, 11, 22, 11, 14, 0, 0, [1, 1, 1, 1, 0, 0, 0, 0]>, <197, 12, 23, 11, 14, 0, 0, [1, 1, 1, 1, 0, 0, 0, 0]>, <198, 13, 24, 11, 14, 0, 0, [1, 1, 1, 1, 0, 0, 0, 0]>, <199, 14, 25, 11, 14, 0, 0, [1, 1, 1, 1, 0, 0, 0, 0]>, <200, 15, 26, 11, 14, 0, 0, [1, 1, 1, 1, 0, 0, 0, 0]>, <201, 16, 27, 11, 14, 0, 0, [1, 1, 1, 1, 0, 0, 0, 0]>, <202, 17, 28, 11, 14, 0, 0, [1, 1, 1, 1, 0, 0, 0, 0]>, <203, 18, 29, 11, 14, 0, 0, [1, 1, 1, 1, 0, 0, 0, 0]>, <204, 2, 12, 10, 15, 0, 0, [1, 1, 0, 0, 0, 0, 1, 1]>, <205, 3, 13, 10, 15, 0, 0, [1, 1, 0, 0, 0, 0, 1, 1]>, <206, 4, 14, 10, 15, 0, 0, [1, 1, 0, 0, 0, 0, 1, 1]>, <207, 5, 15, 10, 15, 0, 0, [1, 1, 0, 0, 0, 0, 1, 1]>, <208, 10, 20, 10, 15, 0, 0, [1, 1, 0, 0, 0, 0, 1, 1]>, <209, 11, 21, 10, 15, 0, 0, [1, 1, 0, 0, 0, 0, 1, 1]>, <210, 12, 22, 10, 15, 0, 0, [1, 1, 0, 0, 0, 0, 1, 1]>, <211, 14, 24, 10, 15, 0, 0, [1, 1, 0, 0, 0, 0, 1, 1]>, <212, 15, 25, 10, 15, 0, 0, [1, 1, 0, 0, 0, 0, 1, 1]>, <213, 16, 26, 10, 15, 0, 0, [1, 1, 0, 0, 0, 0, 1, 1]>, <214, 17, 27, 10, 15, 0, 0, [1, 1, 0, 0, 0, 0, 1, 1]>, <215, 18, 28, 10, 15, 0, 0, [1, 1, 0, 0, 0, 0, 1, 1]>, <216, 19, 29, 10, 15, 0, 0, [1, 1, 0, 0, 0, 0, 1, 1]>, <217, 3, 12, 9, 16, 0, 1, [0, 0, 1, 1, 1, 1, 0, 0]>, <218, 4, 13, 9, 16, 0, 1, [0, 0, 1, 1, 1, 1, 0, 0]>, <219, 5, 14, 9, 16, 0, 1, [0, 0, 1, 1, 1, 1, 0, 0]>, <220, 11, 20, 9, 16, 0, 1, [0, 0, 1, 1, 1, 1, 0, 0]>, <221, 12, 21, 9, 16, 0, 1, [0, 0, 1, 1, 1, 1, 0, 0]>, <222, 15, 24, 9, 16, 0, 1, [0, 0, 1, 1, 1, 1, 0, 0]>, <223, 16, 25, 9, 16, 0, 1, [0, 0, 1, 1, 1, 1, 0, 0]>, <224, 17, 26, 9, 16, 0, 1, [0, 0, 1, 1, 1, 1, 0, 0]>, <225, 18, 27, 9, 16, 0, 1, [0, 0, 1, 1, 1, 1, 0, 0]>, <226, 19, 28, 9, 16, 0, 1, [0, 0, 1, 1, 1, 1, 0, 0]>, <227, 20, 29, 9, 16, 0, 1, [0, 0, 1, 1, 1, 1, 0, 0]>, <228, 1, 12, 11, 17, 0, 1, [1, 1, 1, 1, 0, 0, 0, 0]>, <229, 2, 13, 11, 17, 0, 1, [1, 1, 1, 1, 0, 0, 0, 0]>, <230, 3, 14, 11, 17, 0, 1, [1, 1, 1, 1, 0, 0, 0, 0]>, <231, 4, 15, 11, 17, 0, 1, [1, 1, 1, 1, 0, 0, 0, 0]>, <232, 5, 16, 11, 17, 0, 1, [1, 1, 1, 1, 0, 0, 0, 0]>, <233, 9, 20, 11, 17, 0, 1, [1, 1, 1, 1, 0, 0, 0, 0]>, <234, 10, 21, 11, 17, 0, 1, [1, 1, 1, 1, 0, 0, 0, 0]>, <235, 11, 22, 11, 17, 0, 1, [1, 1, 1, 1, 0, 0, 0, 0]>, <236, 12, 23, 11, 17, 0, 1, [1, 1, 1, 1, 0, 0, 0, 0]>, <237, 13, 24, 11, 17, 0, 1, [1, 1, 1, 1, 0, 0, 0, 0]>, <238, 14, 25, 11, 17, 0, 1, [1, 1, 1, 1, 0, 0, 0, 0]>, <239, 15, 26, 11, 17, 0, 1, [1, 1, 1, 1, 0, 0, 0, 0]>, <240, 16, 27, 11, 17, 0, 1, [1, 1, 1, 1, 0, 0, 0, 0]>, <241, 17, 28, 11, 17, 0, 1, [1, 1, 1, 1, 0, 0, 0, 0]>, <242, 18, 29, 11, 17, 0, 1, [1, 1, 1, 1, 0, 0, 0, 0]>, <243, 4, 11, 7, 18, 1, 0, [1, 1, 1, 0, 0, 0, 0, 1]>, <244, 5, 12, 7, 18, 1, 0, [1, 1, 1, 0, 0, 0, 0, 1]>, <245, 11, 18, 7, 18, 1, 0, [1, 1, 1, 0, 0, 0, 0, 1]>, <246, 12, 19, 7, 18, 1, 0, [1, 1, 1, 0, 0, 0, 0, 1]>, <247, 17, 24, 7, 18, 1, 0, [1, 1, 1, 0, 0, 0, 0, 1]>, <248, 18, 25, 7, 18, 1, 0, [1, 1, 1, 0, 0, 0, 0, 1]>, <249, 19, 26, 7, 18, 1, 0, [1, 1, 1, 0, 0, 0, 0, 1]>, <250, 20, 27, 7, 18, 1, 0, [1, 1, 1, 0, 0, 0, 0, 1]>, <251, 0, 12, 12, 19, 1, 0, [0, 0, 1, 1, 1, 1, 0, 0]>, <252, 1, 13, 12, 19, 1, 0, [0, 0, 1, 1, 1, 1, 0, 0]>, <253, 2, 14, 12, 19, 1, 0, [0, 0, 1, 1, 1, 1, 0, 0]>, <254, 3, 15, 12, 19, 1, 0, [0, 0, 1, 1, 1, 1, 0, 0]>, <255, 4, 16, 12, 19, 1, 0, [0, 0, 1, 1, 1, 1, 0, 0]>, <256, 5, 17, 12, 19, 1, 0, [0, 0, 1, 1, 1, 1, 0, 0]>, <257, 8, 20, 12, 19, 1, 0, [0, 0, 1, 1, 1, 1, 0, 0]>, <258, 9, 21, 12, 19, 1, 0, [0, 0, 1, 1, 1, 1, 0, 0]>, <259, 10, 22, 12, 19, 1, 0, [0, 0, 1, 1, 1, 1, 0, 0]>, <260, 11, 23, 12, 19, 1, 0, [0, 0, 1, 1, 1, 1, 0, 0]>, <261, 12, 24, 12, 19, 1, 0, [0, 0, 1, 1, 1, 1, 0, 0]>, <262, 13, 25, 12, 19, 1, 0, [0, 0, 1, 1, 1, 1, 0, 0]>, <263, 14, 26, 12, 19, 1, 0, [0, 0, 1, 1, 1, 1, 0, 0]>, <264, 15, 27, 12, 19, 1, 0, [0, 0, 1, 1, 1, 1, 0, 0]>, <265, 16, 28, 12, 19, 1, 0, [0, 0, 1, 1, 1, 1, 0, 0]>, <266, 17, 29, 12, 19, 1, 0, [0, 0, 1, 1, 1, 1, 0, 0]>, <267, 3, 12, 9, 20, 0, 1, [1, 1, 1, 1, 0, 0, 0, 0]>, <268, 4, 13, 9, 20, 0, 1, [1, 1, 1, 1, 0, 0, 0, 0]>, <269, 5, 14, 9, 20, 0, 1, [1, 1, 1, 1, 0, 0, 0, 0]>, <270, 11, 20, 9, 20, 0, 1, [1, 1, 1, 1, 0, 0, 0, 0]>, <271, 12, 21, 9, 20, 0, 1, [1, 1, 1, 1, 0, 0, 0, 0]>, <272, 15, 24, 9, 20, 0, 1, [1, 1, 1, 1, 0, 0, 0, 0]>, <273, 16, 25, 9, 20, 0, 1, [1, 1, 1, 1, 0, 0, 0, 0]>, <274, 17, 26, 9, 20, 0, 1, [1, 1, 1, 1, 0, 0, 0, 0]>, <275, 18, 27, 9, 20, 0, 1, [1, 1, 1, 1, 0, 0, 0, 0]>, <276, 19, 28, 9, 20, 0, 1, [1, 1, 1, 1, 0, 0, 0, 0]>, <277, 20, 29, 9, 20, 0, 1, [1, 1, 1, 1, 0, 0, 0, 0]>, <278, 3, 12, 9, 21, 0, 0, [0, 0, 0, 1, 1, 1, 1, 0]>, <279, 4, 13, 9, 21, 0, 0, [0, 0, 0, 1, 1, 1, 1, 0]>, <280, 5, 14, 9, 21, 0, 0, [0, 0, 0, 1, 1, 1, 1, 0]>, <281, 11, 20, 9, 21, 0, 0, [0, 0, 0, 1, 1, 1, 1, 0]>, <282, 12, 21, 9, 21, 0, 0, [0, 0, 0, 1, 1, 1, 1, 0]>, <283, 15, 24, 9, 21, 0, 0, [0, 0, 0, 1, 1, 1, 1, 0]>, <284, 16, 25, 9, 21, 0, 0, [0, 0, 0, 1, 1, 1, 1, 0]>, <285, 17, 26, 9, 21, 0, 0, [0, 0, 0, 1, 1, 1, 1, 0]>, <286, 18, 27, 9, 21, 0, 0, [0, 0, 0, 1, 1, 1, 1, 0]>, <287, 19, 28, 9, 21, 0, 0, [0, 0, 0, 1, 1, 1, 1, 0]>, <288, 20, 29, 9, 21, 0, 0, [0, 0, 0, 1, 1, 1, 1, 0]>};
